6840495641441808565014,5,1,2,04,5,1,2,07,13,1,2,08,12,1,2,09,10,1,2,012,14,1,2,05,4,1,2,015,15,1,2,08,14,1,2,011,13,1,2,03,8,1,2,015,8,1,2,09,13,1,2,01,2,1,2,011,13,1,2,01,8,1,2,015,8,1,2,010,13,1,2,09,2,1,2,014,6,1,2,04,3,1,2,08,4,1,2,015,14,1,2,06,1,1,2,03,11,1,2,04,9,1,2,02,2,1,2,07,8,1,2,03,5,1,2,06,13,1,2,015,3,1,2,07,4,1,2,06,5,1,2,05,11,1,2,04,6,1,2,010,4,1,2,012,6,1,2,013,3,1,2,03,7,1,2,03,14,1,2,010,11,1,2,03,4,1,2,01,2,1,2,010,7,1,2,08,14,1,2,08,14,1,2,04,2,1,2,011,8,1,2,07,9,1,2,03,12,1,2,0